\ This file has been generated by DOcplex
\ ENCODING=ISO-8859-1
\Problem name: random_problem.lp

Minimize
 obj: 278 x0 + 139 x1 + 104 x2 + 52 x3 - 856 x4 - 428 x5 + [ 600 x0^2
      + 600 x0*x1 + 816 x0*x2 + 408 x0*x3 + 1280 x0*x4 + 640 x0*x5 + 150 x1^2
      + 408 x1*x2 + 204 x1*x3 + 640 x1*x4 + 320 x1*x5 + 2416 x2^2 + 2416 x2*x3
      - 256 x2*x4 - 128 x2*x5 + 604 x3^2 - 128 x3*x4 - 64 x3*x5 + 3232 x4^2
      + 3232 x4*x5 + 808 x5^2 ]/2
Subject To
 c0: 2 x0 + x1 + 2 x2 + x3 + 2 x4 + x5 = 3

Bounds
 0 <= x0 <= 1
 0 <= x1 <= 1
 0 <= x2 <= 1
 0 <= x3 <= 1
 0 <= x4 <= 1
 0 <= x5 <= 1

Binaries
 x0 x1 x2 x3 x4 x5
End
